RT is False
Default write of storage_offers_DA.csv just to have a file (but constraint should be inactive)
Reading model...
...model read.
creating competitive generators file...
...competitive generators recorded.
Loading data...
.. day-ahead data with real-time VRE data read.
Compiling instance...
...instance created.
Creating Offer Mitigation (model will solve as dispatch if TRUE)...
Solving...

Welcome to IBM(R) ILOG(R) CPLEX(R) Interactive Optimizer 12.9.0.0
  with Simplex, Mixed Integer & Barrier Optimizers
5725-A06 5725-A29 5724-Y48 5724-Y49 5724-Y54 5724-Y55 5655-Y21
Copyright IBM Corp. 1988, 2019.  All Rights Reserved.

Type 'help' for a list of available commands.
Type 'help' followed by a command name for more
information on commands.

CPLEX> Logfile 'cplex.log' closed.
Logfile 'C:\Users\Luke\Desktop\test919\logs\tmpdem8unbh.cplex.log' open.
CPLEX> New value for parallel optimization mode: -1
CPLEX> New value for mixed integer optimality gap tolerance: 0.01
CPLEX> New value for integrality tolerance: 1e-09
CPLEX> New value for feasibility tolerance: 0.01
CPLEX> New value for deterministic time limit in ticks: 75000
CPLEX> Problem 'C:\Users\Luke\Desktop\test919\logs\tmpog3tq0x8.pyomo.lp' read.
Read time = 0.05 sec. (3.04 ticks)
CPLEX> Problem name         : C:\Users\Luke\Desktop\test919\logs\tmpog3tq0x8.pyomo.lp
Objective sense      : Minimize
Variables            :   26081  [Nneg: 1,  Box: 21616,  Free: 4464]
Objective nonzeros   :    2496
Linear constraints   :   27515  [Less: 14006,  Greater: 4416,  Equal: 9093]
  Nonzeros           :   89219
  RHS nonzeros       :   12270

Variables            : Min LB: -5000.000        Max UB: 1000000.       
Objective nonzeros   : Min   : 15.73158         Max   : 124.0997       
Linear constraints   :
  Nonzeros           : Min   : 0.8500000        Max   : 3000.000       
  RHS nonzeros       : Min   : 0.08333333       Max   : 5000.000       
CPLEX> CPXPARAM_Parallel                                -1
CPXPARAM_Simplex_Tolerances_Feasibility          0.01
CPXPARAM_DetTimeLimit                            75000
CPXPARAM_MIP_Tolerances_MIPGap                   0.01
CPXPARAM_MIP_Tolerances_Integrality              1.0000000000000001e-09
Parallel mode: opportunistic, using up to 12 threads for concurrent optimization.
Tried aggregator 1 time.
LP Presolve eliminated 21377 rows and 15488 columns.
Aggregator did 751 substitutions.
Reduced LP has 5387 rows, 9842 columns, and 31777 nonzeros.
Presolve time = 0.05 sec. (30.22 ticks)
Symmetry aggregator did 5563 additional substitutions.

Iteration log . . .
Iteration:     1   Dual objective     =             0.000000
Perturbation started.
Iteration:   101   Dual objective     =             0.000000
Iteration:   340   Dual objective     =             1.290248
Iteration:   604   Dual objective     =             1.872483
Iteration:   869   Dual objective     =             2.005083
Iteration:  1078   Dual objective     =             2.124135
Iteration:  1342   Dual objective     =             2.170118
Iteration:  1594   Dual objective     =             2.204056
Iteration:  1824   Dual objective     =             2.223551
Iteration:  2019   Dual objective     =             2.248650
Iteration:  2209   Dual objective     =         13693.112633
Iteration:  2404   Dual objective     =         33322.493502
Iteration:  2670   Dual objective     =         36515.091201
Iteration:  2989   Dual objective     =         42783.406796
Removing perturbation.
Dual superbasis not built.
Using devex.

Primal simplex solved model.


Primal simplex - Optimal:  Objective =  4.3954228487e+04
Solution time =    0.13 sec.  Iterations = 1639 (1090)
Deterministic time = 80.27 ticks  (642.14 ticks/sec)

CPLEX> Solution written to file 'C:\Users\Luke\Desktop\test919\logs\tmpizb94ei_.cplex.sol'.
CPLEX> Exporting results... 
...storage offer mitigation file created
Converting model to MPEC...
...converted
NOTE: initial MIP solve with only storage competitive to get feasible solution
Solving...

Welcome to IBM(R) ILOG(R) CPLEX(R) Interactive Optimizer 12.9.0.0
  with Simplex, Mixed Integer & Barrier Optimizers
5725-A06 5725-A29 5724-Y48 5724-Y49 5724-Y54 5724-Y55 5655-Y21
Copyright IBM Corp. 1988, 2019.  All Rights Reserved.

Type 'help' for a list of available commands.
Type 'help' followed by a command name for more
information on commands.

CPLEX> Logfile 'cplex.log' closed.
Logfile 'C:\Users\Luke\Desktop\test919\logs\tmpg3cr2fan.cplex.log' open.
CPLEX> New value for parallel optimization mode: -1
CPLEX> New value for mixed integer optimality gap tolerance: 0.01
CPLEX> New value for integrality tolerance: 1e-09
CPLEX> New value for feasibility tolerance: 0.01
CPLEX> New value for deterministic time limit in ticks: 75000
CPLEX> Problem 'C:\Users\Luke\Desktop\test919\logs\tmp1grpeno2.pyomo.lp' read.
Read time = 0.20 sec. (14.78 ticks)
CPLEX> Problem name         : C:\Users\Luke\Desktop\test919\logs\tmp1grpeno2.pyomo.lp
Objective sense      : Maximize
Variables            :   53805  [Nneg: 1,  Box: 22000,  Free: 4464,
                                 Binary: 27340]
Objective nonzeros   :    9028
Linear constraints   :  123205  [Less: 41346,  Greater: 59096,  Equal: 22763]
  Nonzeros           :  291752
  RHS nonzeros       :   67436

Variables            : Min LB: -5000.000        Max UB: 1000000.       
Objective nonzeros   : Min   : 0.08333333       Max   : 2500.000       
Linear constraints   :
  Nonzeros           : Min   : 0.08333333       Max   : 1000000.       
  RHS nonzeros       : Min   : 0.08333333       Max   : 1000000.       
CPLEX> CPXPARAM_Parallel                                -1
CPXPARAM_Simplex_Tolerances_Feasibility          0.01
CPXPARAM_DetTimeLimit                            75000
CPXPARAM_MIP_Tolerances_MIPGap                   0.01
CPXPARAM_MIP_Tolerances_Integrality              1.0000000000000001e-09
Tried aggregator 3 times.
MIP Presolve eliminated 88695 rows and 19019 columns.
MIP Presolve added 3362 rows and 0 columns.
MIP Presolve modified 24864 coefficients.
Aggregator did 12986 substitutions.
Reduced MIP has 24886 rows, 21244 columns, and 70962 nonzeros.
Reduced MIP has 8401 binaries, 0 generals, 0 SOSs, and 0 indicators.
Presolve time = 0.22 sec. (173.75 ticks)
Probing fixed 430 vars, tightened 2865 bounds.
Probing time = 1.63 sec. (926.30 ticks)
Tried aggregator 2 times.
MIP Presolve eliminated 959 rows and 861 columns.
MIP Presolve modified 2212 coefficients.
Aggregator did 40 substitutions.
Reduced MIP has 23887 rows, 20343 columns, and 68058 nonzeros.
Reduced MIP has 7971 binaries, 0 generals, 0 SOSs, and 0 indicators.
Presolve time = 0.09 sec. (68.19 ticks)
Probing time = 0.05 sec. (16.15 ticks)
Clique table members: 6459.
MIP emphasis: balance optimality and feasibility.
MIP search method: dynamic search.
Parallel mode: opportunistic, using up to 12 threads.
Root relaxation solution time = 0.44 sec. (306.89 ticks)

        Nodes                                         Cuts/
   Node  Left     Objective  IInf  Best Integer    Best Bound    ItCnt     Gap

      0     0     3329.0786  1721                   3329.0786     6664         
      0     0     3329.0786     1                     Cuts: 2     6665         
      0     2     3329.0786     1                   3329.0786     6665         
Elapsed time = 9.42 sec. (4556.86 ticks, tree = 0.02 MB, solutions = 0)
*   166    76      integral     0      354.6003     3329.0786     7324  838.83%
    296   119     3140.2165     1     1842.4113     3329.0786     7993   80.69%
*   326    69      integral     0     2628.9902     3329.0786     8219   26.63%
    518   175     3140.2165     1     2628.9902     3329.0786     8845   26.63%
*   640   153      integral     0     3255.9813     3329.0786     8792    2.25%
*   694   145      integral     0     3329.0786     3329.0786     9300    0.00%
    824   255     3054.7994     1     3329.0786     3329.0786     9306    0.00%

Cover cuts applied:  2
Implied bound cuts applied:  2

Root node processing (before b&c):
  Real time             =    9.05 sec. (4529.42 ticks)
Parallel b&c, 12 threads:
  Real time             =    4.42 sec. (1391.69 ticks)
  Sync time (average)   =    0.09 sec.
  Wait time (average)   =    0.00 sec.
                          ------------
Total (root+branch&cut) =   13.47 sec. (5921.11 ticks)

Solution pool: 6 solutions saved.

MIP - Integer optimal solution:  Objective =  3.3290785615e+03
Solution time =   13.47 sec.  Iterations = 9972  Nodes = 852
Deterministic time = 5921.26 ticks  (439.62 ticks/sec)

CPLEX> Incumbent solution written to file 'C:\Users\Luke\Desktop\test919\logs\tmp_8wqtaif.cplex.sol'.
CPLEX> NOTE: no warmstart specified for MIP iteration, default behavior is true
NOTE: resolving with all competitive generators using storage-only solution to warmstart
Solving...

Welcome to IBM(R) ILOG(R) CPLEX(R) Interactive Optimizer 12.9.0.0
  with Simplex, Mixed Integer & Barrier Optimizers
5725-A06 5725-A29 5724-Y48 5724-Y49 5724-Y54 5724-Y55 5655-Y21
Copyright IBM Corp. 1988, 2019.  All Rights Reserved.

Type 'help' for a list of available commands.
Type 'help' followed by a command name for more
information on commands.

CPLEX> Logfile 'cplex.log' closed.
Logfile 'C:\Users\Luke\Desktop\test919\logs\tmpznu7f1v9.cplex.log' open.
CPLEX> New value for parallel optimization mode: -1
CPLEX> New value for mixed integer optimality gap tolerance: 0.01
CPLEX> New value for integrality tolerance: 1e-09
CPLEX> New value for feasibility tolerance: 0.01
CPLEX> New value for deterministic time limit in ticks: 75000
CPLEX> Problem 'C:\Users\Luke\Desktop\test919\logs\tmp580thl9c.pyomo.lp' read.
Read time = 0.19 sec. (14.81 ticks)
CPLEX> MIP start file 'C:\Users\Luke\Desktop\test919\logs\tmpd1p8jbta.cplex.mst' read.
CPLEX> Problem name         : C:\Users\Luke\Desktop\test919\logs\tmp580thl9c.pyomo.lp
Objective sense      : Maximize
Variables            :   54525  [Nneg: 1,  Box: 22720,  Free: 4464,
                                 Binary: 27340]
Objective nonzeros   :    9724
Linear constraints   :  123205  [Less: 41346,  Greater: 59096,  Equal: 22763]
  Nonzeros           :  291752
  RHS nonzeros       :   67436

Variables            : Min LB: -5000.000        Max UB: 1000000.       
Objective nonzeros   : Min   : 0.08333333       Max   : 2500.000       
Linear constraints   :
  Nonzeros           : Min   : 0.08333333       Max   : 1000000.       
  RHS nonzeros       : Min   : 0.08333333       Max   : 1000000.       
CPLEX> CPXPARAM_Parallel                                -1
CPXPARAM_Simplex_Tolerances_Feasibility          0.01
CPXPARAM_DetTimeLimit                            75000
CPXPARAM_MIP_Tolerances_MIPGap                   0.01
CPXPARAM_MIP_Tolerances_Integrality              1.0000000000000001e-09
Warning:  No solution found from 1 MIP starts.
Retaining values of one MIP start for possible repair.
Tried aggregator 3 times.
MIP Presolve eliminated 88695 rows and 19739 columns.
MIP Presolve added 3362 rows and 0 columns.
MIP Presolve modified 24864 coefficients.
Aggregator did 12986 substitutions.
Reduced MIP has 24886 rows, 21244 columns, and 70962 nonzeros.
Reduced MIP has 8401 binaries, 0 generals, 0 SOSs, and 0 indicators.
Presolve time = 0.23 sec. (174.11 ticks)
Probing fixed 430 vars, tightened 2865 bounds.
Probing time = 1.64 sec. (926.30 ticks)
Tried aggregator 2 times.
MIP Presolve eliminated 959 rows and 861 columns.
MIP Presolve modified 2212 coefficients.
Aggregator did 40 substitutions.
Reduced MIP has 23887 rows, 20343 columns, and 68058 nonzeros.
Reduced MIP has 7971 binaries, 0 generals, 0 SOSs, and 0 indicators.
Presolve time = 0.09 sec. (68.20 ticks)
Probing time = 0.05 sec. (16.15 ticks)
Clique table members: 6459.
MIP emphasis: balance optimality and feasibility.
MIP search method: dynamic search.
Parallel mode: opportunistic, using up to 12 threads.
Root relaxation solution time = 0.41 sec. (309.70 ticks)

        Nodes                                         Cuts/
   Node  Left     Objective  IInf  Best Integer    Best Bound    ItCnt     Gap

      0     0   166449.9994  2087                 166449.9994     6603         
      0     0   159053.4147   770                   Cuts: 587     6933         
      0     0   158250.9782   688                   Cuts: 286     7057         
      0     0   157962.5928   682                   Cuts: 100     7104         
      0     0   157921.5338   687                    Cuts: 80     7114         
      0     0   157895.9505   682                    Cuts: 73     7124         
      0     0   157893.5540   679                    Cuts: 66     7127         
      0     0   157893.5540   680                    Cuts: 64     7129         
Repair heuristic found nothing.
      0     2   157893.5540   679                 Impl Bds: 1     7130         
Elapsed time = 14.22 sec. (7153.98 ticks, tree = 0.02 MB, solutions = 0)
    126    29   151875.2005   620                 155436.8761     7268         
    249   242   147142.9898   580                 155436.8761     9189         
    418   343   137402.8319   566                 155436.8761     9847         
    620   421   136130.1086   579                 155436.8761    10754         
    842   607   127875.6678   586                 155436.8761    12946         
   1087   693    infeasible                       155436.8761    16232         
   1291   766    84650.8794   560                 155436.8761    21700         
   1478   978   110063.9691   565                 155436.8761    25782         
   1771  1018    63292.2055   461                 155436.8761    26260         
   2970  2235    infeasible                       155436.8761    33800         
Elapsed time = 27.28 sec. (10266.36 ticks, tree = 17.37 MB, solutions = 0)
   4957  3762   116836.3384   604                 155436.8761    35496         
*  6400  4566      integral     0    70923.7627   155436.8761    36321  119.16%
   6401  4565    70923.7627     0    70923.7627   155436.8761    36321  119.16%
   6570  3110        cutoff          70923.7627   128240.7390    47938   80.81%
   6961    32   108251.5892   193    70923.7627   126851.2455    48548   78.86%
   7441   583   104338.8799   188    70923.7627   126851.2455    55539   78.86%
   7940   875    95636.1785   212    70923.7627   125337.6114    60025   76.72%
   8118  1240   109310.8412   211    70923.7627   125337.6114    66287   76.72%
   8698  1455    73172.9878   140    70923.7627   121447.8455    69931   71.24%
   9351  1717   106145.6621   228    70923.7627   117998.6182    73787   66.37%
  10063  2000    90448.2968   192    70923.7627   115007.4451    77575   62.16%
Elapsed time = 90.19 sec. (30936.34 ticks, tree = 15.34 MB, solutions = 3)
  10748  2609    72107.1994   133    70923.7627   111380.3266    85834   57.04%
  11417  3042    89245.1890   134    70923.7627   111380.3266    91041   57.04%
  12062  3772    72166.4611    83    70923.7627   109518.9225    98644   54.42%
  12617  4048   106219.4300   202    70923.7627   109518.9225   102804   54.42%
  13193  4811    77721.8508   109    70923.7627   109518.9225   115039   54.42%
  13799  5035    75187.3345    91    70923.7627   109518.9225   117728   54.42%
  14442  6338    98082.9934   153    70923.7627   106903.6456   137193   50.73%
  15034  6519    97733.2278   205    70923.7627   106903.6456   139930   50.73%
  15766  6905    76132.1807    77    70923.7627   106903.6456   143155   50.73%
  16477  7563    75559.2598    76    70923.7627   106903.6456   149986   50.73%
Elapsed time = 136.19 sec. (40488.94 ticks, tree = 65.45 MB, solutions = 3)
  17175  7643    87663.6869   102    70923.7627   106709.7124   150728   50.46%
  17832  8288    71704.2591    92    70923.7627   106428.4521   156769   50.06%
  18347  9383    91965.6444   118    70923.7627   106370.8953   168821   49.98%
  18817  8966    89295.9219    87    70923.7627   106370.8953   164253   49.98%
  19176  9698    73137.5392    54    70923.7627   106016.1647   171299   49.48%
  19805 11162    76973.5233    86    70923.7627   106016.1647   184985   49.48%
  20449 10066    85200.8636   160    70923.7627   105991.6768   176210   49.44%
  21203 10842    74699.7202   113    70923.7627   105991.6768   182665   49.44%
  21951 12053    71216.2652    62    70923.7627   105823.2990   191877   49.21%
  22720 11846    71304.7648    43    70923.7627   105812.6158   190140   49.19%
Elapsed time = 176.61 sec. (50040.51 ticks, tree = 104.73 MB, solutions = 3)
  23412 11827    80020.6288    81    70923.7627   105812.6158   190301   49.19%
  24114 12943    81338.9448   107    70923.7627   105489.2197   200434   48.74%
  24837 13714    77182.3624   160    70923.7627   105421.9510   208750   48.64%
  25603 13437    74963.4890    87    70923.7627   105294.6690   205163   48.46%
  26406 14549    88409.9009   102    70923.7627   105136.2335   214920   48.24%
  27237 14693        cutoff          70923.7627   104803.8815   216757   47.77%
  28006 16462    87778.3681   147    70923.7627   104803.8815   234515   47.77%
  28822 16111    72018.6058    50    70923.7627   104639.2886   230095   47.54%
  29649 16420    80228.1922    71    70923.7627   104449.3647   233993   47.27%
  30444 18235    80748.2192    85    70923.7627   104449.3647   252026   47.27%
Elapsed time = 223.06 sec. (59588.70 ticks, tree = 164.17 MB, solutions = 3)
  31211 19486   102671.6025   206    70923.7627   104324.1080   261695   47.09%
  31999 17791        cutoff          70923.7627   104210.9383   248768   46.93%
  32738 19581    91814.8966   134    70923.7627   104210.9383   262882   46.93%
  33431 18948    74792.2840    67    70923.7627   104164.5021   256969   46.87%
  34023 21520    78466.1083    99    70923.7627   104087.8788   278888   46.76%
  34528 20028    88763.5549   112    70923.7627   103824.1863   265253   46.39%
  35055 20515    72236.6571    61    70923.7627   103824.1863   269489   46.39%
  35577 21293    84539.8178    69    70923.7627   103647.3866   276841   46.14%
  35971 21184    72841.7276    87    70923.7627   103647.3866   276582   46.14%
  36469 24024    72558.6483    75    70923.7627   103303.0836   298480   45.65%
Elapsed time = 258.34 sec. (69151.34 ticks, tree = 217.77 MB, solutions = 3)
  36831 22590    80701.3031    77    70923.7627   103303.0836   286898   45.65%
  37241 24670    78051.1165    66    70923.7627   103303.0836   303362   45.65%
  37792 24267    88148.6929    75    70923.7627   103303.0836   302400   45.65%
  38340 24070    92658.8519   126    70923.7627   103303.0836   299057   45.65%
  38712 25102    78931.8475    84    70923.7627   103303.0836   306140   45.65%
  38946 25163    71088.9173    64    70923.7627   103303.0836   306381   45.65%

GUB cover cuts applied:  5
Clique cuts applied:  21
Cover cuts applied:  23
Implied bound cuts applied:  43
Flow cuts applied:  1966
Mixed integer rounding cuts applied:  5030
Gomory fractional cuts applied:  190

Root node processing (before b&c):
  Real time             =   13.53 sec. (7107.65 ticks)
Parallel b&c, 12 threads:
  Real time             =  249.09 sec. (67908.11 ticks)
  Sync time (average)   =    0.95 sec.
  Wait time (average)   =    0.07 sec.
                          ------------
Total (root+branch&cut) =  262.63 sec. (75015.77 ticks)

Solution pool: 3 solutions saved.

MIP - Deterministic time limit exceeded, integer feasible:  Objective =  7.0923762735e+04
Current MIP best bound =  1.0313783761e+05 (gap = 32214.1, 45.42%)
Solution time =  262.63 sec.  Iterations = 322278  Nodes = 38962 (27093)
Deterministic time = 75015.92 ticks  (285.64 ticks/sec)

CPLEX> Incumbent solution written to file 'C:\Users\Luke\Desktop\test919\logs\tmptmo5ejvh.cplex.sol'.
CPLEX> Exporting results... 
